# Solution for model Master problem
# Objective value = 5.0639999999999973e+03
X_0_6 1
X_1_6 0
X_2_6 0
X_3_6 0
X_4_6 0
X_5_6 0
X_6_6 0
X_7_6 0
X_8_6 1
X_9_6 0
X_0_8 0
X_1_8 1
X_2_8 0
X_3_8 0
X_4_8 0
X_5_8 0
X_6_8 0
X_7_8 0
X_8_8 0
X_9_8 0
X_0_10 0
X_1_10 0
X_2_10 0
X_3_10 0
X_4_10 0
X_5_10 0
X_6_10 0
X_7_10 0
X_8_10 0
X_9_10 0
X_0_14 0
X_1_14 0
X_2_14 1
X_3_14 0
X_4_14 0
X_5_14 0
X_6_14 0
X_7_14 0
X_8_14 0
X_9_14 0
X_0_16 0
X_1_16 0
X_2_16 0
X_3_16 1
X_4_16 0
X_5_16 0
X_6_16 0
X_7_16 0
X_8_16 0
X_9_16 0
X_0_18 0
X_1_18 0
X_2_18 0
X_3_18 0
X_4_18 0
X_5_18 0
X_6_18 0
X_7_18 0
X_8_18 0
X_9_18 0
X_0_22 0
X_1_22 0
X_2_22 0
X_3_22 0
X_4_22 1
X_5_22 0
X_6_22 0
X_7_22 0
X_8_22 0
X_9_22 0
X_0_24 0
X_1_24 0
X_2_24 0
X_3_24 0
X_4_24 0
X_5_24 0
X_6_24 0
X_7_24 0
X_8_24 0
X_9_24 0
X_0_28 0
X_1_28 0
X_2_28 0
X_3_28 0
X_4_28 0
X_5_28 1
X_6_28 0
X_7_28 0
X_8_28 0
X_9_28 0
X_0_30 0
X_1_30 0
X_2_30 0
X_3_30 0
X_4_30 0
X_5_30 0
X_6_30 0
X_7_30 0
X_8_30 0
X_9_30 0
X_0_44 0
X_1_44 0
X_2_44 0
X_3_44 0
X_4_44 0
X_5_44 0
X_6_44 1
X_7_44 0
X_8_44 0
X_9_44 0
X_0_46 0
X_1_46 0
X_2_46 0
X_3_46 0
X_4_46 0
X_5_46 0
X_6_46 0
X_7_46 0
X_8_46 0
X_9_46 0
X_0_50 0
X_1_50 0
X_2_50 0
X_3_50 0
X_4_50 0
X_5_50 0
X_6_50 0
X_7_50 1
X_8_50 0
X_9_50 0
X_0_52 0
X_1_52 0
X_2_52 0
X_3_52 0
X_4_52 0
X_5_52 0
X_6_52 0
X_7_52 0
X_8_52 0
X_9_52 0
X_0_54 0
X_1_54 0
X_2_54 0
X_3_54 0
X_4_54 0
X_5_54 0
X_6_54 0
X_7_54 0
X_8_54 0
X_9_54 0
X_0_58 0
X_1_58 0
X_2_58 0
X_3_58 0
X_4_58 0
X_5_58 0
X_6_58 0
X_7_58 0
X_8_58 0
X_9_58 0
theta_0_0_0 7
theta_0_0_1 9
theta_0_0_2 15
theta_0_0_3 17
theta_0_0_4 23
theta_0_0_5 29
theta_0_0_6 45
theta_0_0_7 51
theta_1_0_0 7
theta_1_0_1 9
theta_1_0_2 15
theta_1_0_3 17
theta_1_0_4 23
theta_1_0_5 29
theta_1_0_6 45
theta_1_0_7 51
Z_0_0_0_1_0 12
ZP_0_0_0_1_0 12
Z_1_0_0_1_0 12
ZP_1_0_0_1_0 12
Z_0_1_0_1_0 12
ZP_0_1_0_1_0 12
Z_1_1_0_1_0 12
ZP_1_1_0_1_0 12
Z_0_0_0_0_1 12
ZP_0_0_0_0_1 -12
Z_1_0_0_0_1 12
ZP_1_0_0_0_1 -12
Z_0_1_0_0_1 12
ZP_0_1_0_0_1 -12
Z_1_1_0_0_1 12
ZP_1_1_0_0_1 -12
Z_0_0_0_2_1 36
ZP_0_0_0_2_1 36
Z_1_0_0_2_1 36
ZP_1_0_0_2_1 36
Z_0_1_0_2_1 36
ZP_0_1_0_2_1 36
Z_1_1_0_2_1 36
ZP_1_1_0_2_1 36
Z_0_0_0_1_2 36
ZP_0_0_0_1_2 -36
Z_1_0_0_1_2 36
ZP_1_0_0_1_2 -36
Z_0_1_0_1_2 36
ZP_0_1_0_1_2 -36
Z_1_1_0_1_2 36
ZP_1_1_0_1_2 -36
Z_0_0_0_3_2 12
ZP_0_0_0_3_2 12
Z_1_0_0_3_2 12
ZP_1_0_0_3_2 12
Z_0_1_0_3_2 12
ZP_0_1_0_3_2 12
Z_1_1_0_3_2 12
ZP_1_1_0_3_2 12
Z_0_0_0_2_3 12
ZP_0_0_0_2_3 -12
Z_1_0_0_2_3 12
ZP_1_0_0_2_3 -12
Z_0_1_0_2_3 12
ZP_0_1_0_2_3 -12
Z_1_1_0_2_3 12
ZP_1_1_0_2_3 -12
Z_0_0_0_4_3 36
ZP_0_0_0_4_3 36
Z_1_0_0_4_3 36
ZP_1_0_0_4_3 36
Z_0_1_0_4_3 36
ZP_0_1_0_4_3 36
Z_1_1_0_4_3 36
ZP_1_1_0_4_3 36
Z_0_0_0_3_4 36
ZP_0_0_0_3_4 -36
Z_1_0_0_3_4 36
ZP_1_0_0_3_4 -36
Z_0_1_0_3_4 36
ZP_0_1_0_3_4 -36
Z_1_1_0_3_4 36
ZP_1_1_0_3_4 -36
Z_0_0_0_5_4 36
ZP_0_0_0_5_4 36
Z_1_0_0_5_4 36
ZP_1_0_0_5_4 36
Z_0_1_0_5_4 36
ZP_0_1_0_5_4 36
Z_1_1_0_5_4 36
ZP_1_1_0_5_4 36
Z_0_0_0_4_5 36
ZP_0_0_0_4_5 -36
Z_1_0_0_4_5 36
ZP_1_0_0_4_5 -36
Z_0_1_0_4_5 36
ZP_0_1_0_4_5 -36
Z_1_1_0_4_5 36
ZP_1_1_0_4_5 -36
Z_0_0_0_6_5 96
ZP_0_0_0_6_5 96
Z_1_0_0_6_5 96
ZP_1_0_0_6_5 96
Z_0_1_0_6_5 96
ZP_0_1_0_6_5 96
Z_1_1_0_6_5 96
ZP_1_1_0_6_5 96
Z_0_0_0_5_6 96
ZP_0_0_0_5_6 -96
Z_1_0_0_5_6 96
ZP_1_0_0_5_6 -96
Z_0_1_0_5_6 96
ZP_0_1_0_5_6 -96
Z_1_1_0_5_6 96
ZP_1_1_0_5_6 -96
Z_0_0_0_7_6 36
ZP_0_0_0_7_6 36
Z_1_0_0_7_6 36
ZP_1_0_0_7_6 36
Z_0_1_0_7_6 36
ZP_0_1_0_7_6 36
Z_1_1_0_7_6 36
ZP_1_1_0_7_6 36
Z_0_0_0_6_7 36
ZP_0_0_0_6_7 -36
Z_1_0_0_6_7 36
ZP_1_0_0_6_7 -36
Z_0_1_0_6_7 36
ZP_0_1_0_6_7 -36
Z_1_1_0_6_7 36
ZP_1_1_0_6_7 -36
eta_0_0 720
eta_0_1 660
eta_0_2 600
eta_0_3 540
eta_0_4 600
eta_0_5 540
eta_0_6 600
eta_0_7 540
tmpp_var00 7
tmpp_var10 9
tmpp_var20 15
tmpp_var30 17
tmpp_var40 23
tmpp_var50 29
tmpp_var60 45
tmpp_var70 51
theta 5064
AA0 7
BB0 51
min_var1_0_0_2 12
min_var1_0_1_2 36
min_var1_0_2_2 12
min_var1_0_3_2 36
min_var1_0_4_2 0
min_var1_0_5_2 0
min_var1_0_6_2 96
min_var1_0_7_2 0
min_var1_0_8_2 7
min_var1_0_0_21 0
min_var1_0_1_21 12
min_var1_0_2_21 12
min_var1_0_3_21 36
min_var1_0_4_21 36
min_var1_0_5_21 96
min_var1_0_6_21 36
min_var1_0_7_21 0
min_var1_0_8_21 9
min_var1_0_0_32 0
min_var1_0_1_32 12
min_var1_0_2_32 0
min_var1_0_3_32 12
min_var1_0_4_32 0
min_var1_0_5_32 36
min_var1_0_6_32 36
min_var1_0_7_32 0
min_var1_0_8_32 9
min_var1_0_0_25 0
min_var1_0_1_25 12
min_var1_0_2_25 12
min_var1_0_3_25 0
min_var1_0_4_25 0
min_var1_0_5_25 36
min_var1_0_6_25 0
min_var1_0_7_25 36
min_var1_0_8_25 9
min_var1_0_0_17 0
min_var1_0_1_17 0
min_var1_0_2_17 36
min_var1_0_3_17 0
min_var1_0_4_17 0
min_var1_0_5_17 36
min_var1_0_6_17 0
min_var1_0_7_17 36
min_var1_0_8_17 7
min_var1_0_0_8 12
min_var1_0_1_8 0
min_var1_0_2_8 0
min_var1_0_3_8 12
min_var1_0_4_8 36
min_var1_0_5_8 96
min_var1_0_6_8 36
min_var1_0_7_8 0
min_var1_0_8_8 7
min_var1_0_0_18 0
min_var1_0_1_18 0
min_var1_0_2_18 36
min_var1_0_3_18 0
min_var1_0_4_18 36
min_var1_0_5_18 96
min_var1_0_6_18 36
min_var1_0_7_18 0
min_var1_0_8_18 7
min_var1_0_0_13 0
min_var1_0_1_13 0
min_var1_0_2_13 36
min_var1_0_3_13 36
min_var1_0_4_13 36
min_var1_0_5_13 96
min_var1_0_6_13 36
min_var1_0_7_13 0
min_var1_0_8_13 7
min_var1_0_0_20 0
min_var1_0_1_20 0
min_var1_0_2_20 36
min_var1_0_3_20 0
min_var1_0_4_20 36
min_var1_0_5_20 0
min_var1_0_6_20 96
min_var1_0_7_20 0
min_var1_0_8_20 7
min_var1_0_0_16 0
min_var1_0_1_16 0
min_var1_0_2_16 36
min_var1_0_3_16 0
min_var1_0_4_16 0
min_var1_0_5_16 36
min_var1_0_6_16 36
min_var1_0_7_16 0
min_var1_0_8_16 7
min_var1_0_0_19 0
min_var1_0_1_19 0
min_var1_0_2_19 36
min_var1_0_3_19 0
min_var1_0_4_19 36
min_var1_0_5_19 0
min_var1_0_6_19 0
min_var1_0_7_19 36
min_var1_0_8_19 7
